MARKOV
1032
 2 2 2 2 2 2 2 2 2 2 2 2 2 2 2 2 2 2 2 2 2 2 2 2 2 2 2 2 2 2 2 2 2 2 2 2 2 2 2 2 2 2 2 2 2 2 2 2 2 2 2 2 2 2 2 2 2 2 2 2 2 2 2 2 2 2 2 2 2 2 2 2 2 2 2 2 2 2 2 2 2 2 2 2 2 2 2 2 2 2 2 2 2 2 2 2 2 2 2 2 2 2 2 2 2 2 2 2 2 2 2 2 2 2 2 2 2 2 2 2 2 2 2 2 2 2 2 2 2 2 2 2 2 2 2 2 2 2 2 2 2 2 2 2 2 2 2 2 2 2 2 2 2 2 2 2 2 2 2 2 2 2 2 2 2 2 2 2 2 2 2 2 2 2 2 2 2 2 2 2 2 2 2 2 2 2 2 2 2 2 2 2 2 2 2 2 2 2 2 2 2 2 2 2 2 2 2 2 2 2 2 2 2 2 2 2 2 2 2 2 2 2 2 2 2 2 2 2 2 2 2 2 2 2 2 2 2 2 2 2 2 2 2 2 2 2 2 2 2 2 2 2 2 2 2 2 2 2 2 2 2 2 2 2 2 2 2 2 2 2 2 2 2 2 2 2 2 2 2 2 2 2 2 2 2 2 2 2 2 2 2 2 2 2 2 2 2 2 2 2 2 2 2 2 2 2 2 2 2 2 2 2 2 2 2 2 2 2 2 2 2 2 2 2 2 2 2 2 2 2 2 2 2 2 2 2 2 2 2 2 2 2 2 2 2 2 2 2 2 2 2 2 2 2 2 2 2 2 2 2 2 2 2 2 2 2 2 2 2 2 2 2 2 2 2 2 2 2 2 2 2 2 2 2 2 2 2 2 2 2 2 2 2 2 2 2 2 2 2 2 2 2 2 2 2 2 2 2 2 2 2 2 2 2 2 2 2 2 2 2 2 2 2 2 2 2 2 2 2 2 2 2 2 2 2 2 2 2 2 2 2 2 2 2 2 2 2 2 2 2 2 2 2 2 2 2 2 2 2 2 2 2 2 2 2 2 2 2 2 2 2 2 2 2 2 2 2 2 2 2 2 2 2 2 2 2 2 2 2 2 2 2 2 2 2 2 2 2 2 2 2 2 2 2 2 2 2 2 2 2 2 2 2 2 2 2 2 2 2 2 2 2 2 2 2 2 2 2 2 2 2 2 2 2 2 2 2 2 2 2 2 2 2 2 2 2 2 2 2 2 2 2 2 2 2 2 2 2 2 2 2 2 2 2 2 2 2 2 2 2 2 2 2 2 2 2 2 2 2 2 2 2 2 2 2 2 2 2 2 2 2 2 2 2 2 2 2 2 2 2 2 2 2 2 2 2 2 2 2 2 2 2 2 2 2 2 2 2 2 2 2 2 2 2 2 2 2 2 2 2 2 2 2 2 2 2 2 2 2 2 2 2 2 2 2 2 2 2 2 2 2 2 2 2 2 2 2 2 2 2 2 2 2 2 2 2 2 2 2 2 2 2 2 2 2 2 2 2 2 2 2 2 2 2 2 2 2 2 2 2 2 2 2 2 2 2 2 2 2 2 2 2 2 2 2 2 2 2 2 2 2 2 2 2 2 2 2 2 2 2 2 2 2 2 2 2 2 2 2 2 2 2 2 2 2 2 2 2 2 2 2 2 2 2 2 2 2 2 2 2 2 2 2 2 2 2 2 2 2 2 2 2 2 2 2 2 2 2 2 2 2 2 2 2 2 2 2 2 2 2 2 2 2 2 2 2 2 2 2 2 2 2 2 2 2 2 2 2 2 2 2 2 2 2 2 2 2 2 2 2 2 2 2 2 2 2 2 2 2 2 2 2 2 2 2 2 2 2 2 2 2 2 2 2 2 2 2 2 2 2 2 2 2 2 2 2 2 2 2 2 2 2 2 2 2 2 2 2 2 2 2 2 2 2 2 2 2 2 2 2 2 2 2 2 2 2 2 2 2 2 2 2 2 2 2 2 2 2 2 2 2 2 2 2 2 2 2 2 2 2 2 2 2 2 2 2 2 2 2 2 2 2 2 2 2 2 2 2 2 2 2 2 2 2 2 2 2 2 2 2 2 2 2 2 2 2 2 2 2 2 2 2 2 2 2 2 2 2 2 2 2 2 2 2 2 2 2 2 2 2 2 2 2 2 2 2 2 2 2 2 2 2 2 2 2 2 2 2 2 2 2 2 2 2 2 2 2 2 2 2 2 2 2 2 2 2 2 2 2 2 2 2 2 2 2 2 2 2 2 2 2 2 2 2 2 2 2 2 2 2 2 2 2 2 2 2 2 2 2 2 2 2
1051
3	107 346 1031 
3	426 1030 1031 
3	389 1029 1030 
3	224 1028 1029 
3	209 1027 1028 
3	124 1026 1027 
3	248 1025 1026 
3	134 1024 1025 
3	137 1023 1024 
3	403 1022 1023 
3	210 1021 1022 
3	319 1020 1021 
3	105 1019 1020 
1	1019 
3	20 157 1018 
1	1018 
1	191 
3	9 36 1017 
3	133 1016 1017 
1	1016 
1	150 
3	320 408 1015 
3	111 1014 1015 
1	1014 
3	51 57 1013 
3	90 1012 1013 
3	34 1011 1012 
3	82 1010 1011 
3	77 1009 1010 
3	394 1008 1009 
3	177 1007 1008 
3	250 1006 1007 
1	1006 
3	325 335 1005 
3	113 1004 1005 
3	379 1003 1004 
3	187 1002 1003 
3	78 1001 1002 
3	86 1000 1001 
3	141 999 1000 
3	402 998 999 
3	285 997 998 
3	240 996 997 
3	174 995 996 
3	209 994 995 
3	196 993 994 
3	52 992 993 
3	326 991 992 
3	369 990 991 
3	390 989 990 
3	356 988 989 
3	302 987 988 
3	233 986 987 
3	389 985 986 
3	127 984 985 
3	385 983 984 
3	361 982 983 
3	150 981 982 
3	183 980 981 
3	154 979 980 
3	138 978 979 
3	96 977 978 
3	29 976 977 
3	164 975 976 
3	231 974 975 
3	365 973 974 
3	165 972 973 
3	378 971 972 
3	306 970 971 
3	73 969 970 
3	118 968 969 
3	169 967 968 
3	418 966 967 
3	136 965 966 
3	121 964 965 
3	170 963 964 
3	87 962 963 
3	392 961 962 
3	210 960 961 
3	241 959 960 
3	386 958 959 
3	130 957 958 
3	257 956 957 
3	120 955 956 
3	25 954 955 
3	211 953 954 
3	104 952 953 
3	406 951 952 
3	355 950 951 
3	344 949 950 
3	297 948 949 
3	43 947 948 
3	99 946 947 
3	13 945 946 
3	298 944 945 
3	98 943 944 
3	229 942 943 
3	115 941 942 
3	304 940 941 
3	39 939 940 
3	151 938 939 
3	192 937 938 
3	388 936 937 
3	327 935 936 
3	137 934 935 
3	18 933 934 
3	264 932 933 
3	109 931 932 
3	261 930 931 
3	193 929 930 
3	188 928 929 
3	395 927 928 
3	160 926 927 
3	342 925 926 
3	291 924 925 
3	204 923 924 
3	208 922 923 
3	168 921 922 
3	97 920 921 
3	0 919 920 
3	284 918 919 
3	393 917 918 
3	82 916 917 
3	71 915 916 
3	295 914 915 
3	17 913 914 
3	339 912 913 
3	409 911 912 
3	56 910 911 
3	374 909 910 
3	16 908 909 
3	408 907 908 
3	260 906 907 
3	143 905 906 
3	324 904 905 
3	198 903 904 
3	376 902 903 
3	318 901 902 
3	383 900 901 
3	31 899 900 
3	114 898 899 
3	189 897 898 
3	309 896 897 
3	416 895 896 
3	274 894 895 
3	59 893 894 
3	205 892 893 
3	351 891 892 
3	153 890 891 
3	244 889 890 
3	315 888 889 
3	288 887 888 
3	235 886 887 
3	232 885 886 
3	252 884 885 
3	202 883 884 
3	128 882 883 
3	311 881 882 
3	377 880 881 
3	334 879 880 
3	186 878 879 
3	358 877 878 
3	368 876 877 
3	207 875 876 
3	249 874 875 
3	426 873 874 
3	329 872 873 
3	6 871 872 
3	44 870 871 
3	58 869 870 
3	53 868 869 
3	156 867 868 
3	300 866 867 
3	247 865 866 
3	299 864 865 
3	32 863 864 
3	280 862 863 
3	417 861 862 
3	345 860 861 
3	275 859 860 
3	267 858 859 
3	234 857 858 
3	424 856 857 
3	228 855 856 
3	132 854 855 
3	89 853 854 
3	83 852 853 
3	336 851 852 
3	28 850 851 
3	26 849 850 
3	14 848 849 
3	92 847 848 
3	48 846 847 
3	262 845 846 
3	277 844 845 
3	101 843 844 
3	237 842 843 
1	842 
3	191 428 841 
3	126 840 841 
3	82 839 840 
3	41 838 839 
3	71 837 838 
3	189 836 837 
3	4 835 836 
3	136 834 835 
3	340 833 834 
3	379 832 833 
3	37 831 832 
3	159 830 831 
3	86 829 830 
3	8 828 829 
3	350 827 828 
3	190 826 827 
3	142 825 826 
3	330 824 825 
3	28 823 824 
3	141 822 823 
3	77 821 822 
3	201 820 821 
3	303 819 820 
3	399 818 819 
3	373 817 818 
3	311 816 817 
3	397 815 816 
3	365 814 815 
3	270 813 814 
3	221 812 813 
1	812 
3	168 325 811 
3	122 810 811 
3	217 809 810 
3	125 808 809 
3	180 807 808 
3	393 806 807 
3	82 805 806 
3	184 804 805 
3	95 803 804 
3	173 802 803 
3	301 801 802 
3	295 800 801 
3	131 799 800 
3	353 798 799 
3	78 797 798 
3	219 796 797 
3	17 795 796 
3	116 794 795 
3	276 793 794 
3	305 792 793 
3	246 791 792 
3	322 790 791 
3	206 789 790 
3	40 788 789 
3	323 787 788 
3	412 786 787 
3	135 785 786 
3	181 784 785 
3	11 783 784 
3	129 782 783 
3	240 781 782 
3	16 780 781 
3	419 779 780 
3	375 778 779 
3	394 777 778 
3	108 776 777 
3	324 775 776 
3	179 774 775 
3	79 773 774 
3	55 772 773 
3	245 771 772 
3	80 770 771 
3	171 769 770 
3	238 768 769 
3	203 767 768 
3	5 766 767 
3	94 765 766 
3	414 764 765 
3	127 763 764 
3	175 762 763 
3	258 761 762 
3	140 760 761 
3	309 759 760 
3	328 758 759 
3	112 757 758 
3	59 756 757 
3	351 755 756 
3	225 754 755 
3	64 753 754 
3	194 752 753 
3	288 751 752 
3	331 750 751 
3	218 749 750 
3	93 748 749 
3	152 747 748 
3	200 746 747 
3	50 745 746 
3	42 744 745 
3	103 743 744 
3	341 742 743 
3	255 741 742 
3	117 740 741 
3	67 739 740 
3	371 738 739 
3	425 737 738 
3	334 736 737 
3	119 735 736 
3	213 734 735 
3	186 733 734 
3	178 732 733 
3	358 731 732 
3	343 730 731 
3	249 729 730 
3	165 728 729 
3	147 727 728 
3	359 726 727 
3	282 725 726 
3	306 724 725 
3	169 723 724 
3	44 722 723 
3	372 721 722 
3	68 720 721 
3	53 719 720 
3	230 718 719 
3	350 717 718 
3	247 716 717 
3	265 715 716 
3	313 714 715 
3	380 713 714 
3	130 712 713 
3	145 711 712 
3	162 710 711 
3	293 709 710 
3	222 708 709 
3	77 707 708 
3	347 706 707 
3	321 705 706 
3	417 704 705 
3	27 703 704 
3	406 702 703 
3	76 701 702 
3	421 700 701 
3	360 699 700 
3	370 698 699 
3	273 697 698 
3	214 696 697 
3	234 695 696 
3	297 694 695 
3	43 693 694 
3	223 692 693 
3	236 691 692 
3	243 690 691 
3	176 689 690 
3	2 688 689 
3	367 687 688 
3	38 686 687 
3	197 685 686 
3	304 684 685 
3	91 683 684 
3	289 682 683 
3	19 681 682 
3	158 680 681 
3	199 679 680 
3	192 678 679 
3	410 677 678 
3	272 676 677 
3	422 675 676 
3	33 674 675 
3	70 673 674 
3	279 672 673 
3	327 671 672 
3	264 670 671 
3	256 669 670 
3	216 668 669 
3	45 667 668 
3	49 666 667 
3	415 665 666 
3	149 664 665 
3	429 663 664 
3	172 662 663 
3	342 661 662 
3	101 660 661 
3	401 659 660 
3	404 658 659 
1	658 
3	51 332 657 
3	15 656 657 
3	394 655 656 
3	340 654 655 
3	106 653 654 
3	161 652 653 
3	116 651 652 
3	12 650 651 
3	239 649 650 
3	247 648 649 
1	648 
3	150 296 647 
3	354 646 647 
1	646 
3	82 197 645 
3	304 644 645 
3	349 643 644 
3	83 642 643 
3	276 641 642 
3	322 640 641 
3	320 639 640 
3	278 638 639 
3	77 637 638 
3	314 636 637 
3	45 635 636 
3	76 634 635 
3	111 633 634 
3	352 632 633 
3	155 631 632 
3	124 630 631 
3	316 629 630 
3	294 628 629 
3	214 627 628 
3	171 626 627 
3	384 625 626 
3	254 624 625 
1	624 
3	97 168 623 
3	343 622 623 
3	215 621 622 
3	165 620 621 
3	169 619 620 
3	44 618 619 
3	308 617 618 
3	187 616 617 
3	100 615 616 
3	339 614 615 
3	87 613 614 
3	210 612 613 
3	241 611 612 
3	348 610 611 
3	259 609 610 
3	60 608 609 
3	81 607 608 
3	135 606 607 
3	181 605 606 
3	162 604 605 
3	88 603 604 
3	166 602 603 
3	174 601 602 
3	25 600 601 
3	417 599 600 
3	75 598 599 
3	324 597 598 
3	427 596 597 
3	344 595 596 
3	124 594 595 
3	123 593 594 
3	24 592 593 
3	253 591 592 
3	43 590 591 
3	376 589 590 
3	30 588 589 
3	98 587 588 
3	383 586 587 
3	107 585 586 
3	185 584 585 
3	146 583 584 
3	4 582 583 
3	307 581 582 
3	398 580 581 
3	271 579 580 
3	69 578 579 
3	385 577 578 
3	54 576 577 
3	74 575 576 
3	110 574 575 
3	23 573 574 
3	290 572 573 
3	315 571 572 
3	268 570 571 
3	10 569 570 
3	154 568 569 
3	1 567 568 
3	218 566 567 
3	109 565 566 
3	152 564 565 
3	292 563 564 
3	85 562 563 
3	310 561 562 
3	62 560 561 
3	413 559 560 
3	263 558 559 
3	164 557 558 
3	287 556 557 
3	420 555 556 
3	342 554 555 
1	554 
3	41 405 553 
3	82 552 553 
3	304 551 552 
3	396 550 551 
3	189 549 550 
3	19 548 549 
3	102 547 548 
3	357 546 547 
3	337 545 546 
3	379 544 545 
3	66 543 544 
3	159 542 543 
3	381 541 542 
3	362 540 541 
3	21 539 540 
3	86 538 539 
3	407 537 538 
3	330 536 537 
3	47 535 536 
3	28 534 535 
3	265 533 534 
3	130 532 533 
3	141 531 532 
3	7 530 531 
3	77 529 530 
3	201 528 529 
3	46 527 528 
3	242 526 527 
3	220 525 526 
3	373 524 525 
3	311 523 524 
3	3 522 523 
3	400 521 522 
3	397 520 521 
3	144 519 520 
3	365 518 519 
3	63 517 518 
3	364 516 517 
3	12 515 516 
3	250 514 515 
3	148 513 514 
1	513 
3	35 286 512 
3	391 511 512 
3	41 510 511 
3	82 509 510 
3	184 508 509 
3	189 507 508 
3	317 506 507 
3	337 505 506 
3	353 504 505 
3	163 503 504 
3	21 502 503 
3	116 501 502 
3	65 500 501 
3	226 499 500 
3	312 498 499 
3	382 497 498 
3	330 496 497 
3	247 495 496 
3	22 494 495 
3	139 493 494 
3	363 492 493 
3	84 491 492 
3	387 490 491 
3	283 489 490 
3	167 488 489 
3	77 487 488 
3	201 486 487 
3	266 485 486 
3	255 484 485 
3	29 483 484 
3	227 482 483 
3	72 481 482 
3	269 480 481 
1	480 
3	115 130 479 
3	14 478 479 
3	408 477 478 
3	32 476 477 
3	138 475 476 
3	151 474 475 
3	378 473 474 
3	202 472 473 
3	188 471 472 
3	156 470 471 
3	13 469 470 
3	99 468 469 
3	298 467 468 
3	423 466 467 
3	374 465 466 
1	465 
3	61 333 464 
3	180 463 464 
3	197 462 463 
3	82 461 462 
3	304 460 461 
3	184 459 460 
3	296 458 459 
3	338 457 458 
3	258 456 457 
3	19 455 456 
3	173 454 455 
3	411 453 454 
3	182 452 453 
3	212 451 452 
3	353 450 451 
3	17 449 450 
3	322 448 449 
3	137 447 448 
3	247 446 447 
3	64 445 446 
3	218 444 445 
3	366 443 444 
3	16 442 443 
3	195 441 442 
3	77 440 441 
3	251 439 440 
3	45 438 439 
3	255 437 438 
3	76 436 437 
3	352 435 436 
3	171 434 435 
3	297 433 434 
3	172 432 433 
3	250 431 432 
3	281 430 431 
1	430 
1	122 
1	215 
1	184 
1	113 
1	95 
1	379 
1	353 
1	78 
1	163 
1	219 
1	36 
1	100 
1	305 
1	133 
1	348 
1	412 
1	141 
1	129 
1	375 
1	251 
1	166 
1	108 
1	196 
1	80 
1	326 
1	94 
1	364 
1	390 
1	15 
1	233 
1	296 
1	328 
1	112 
1	21 
1	226 
1	225 
1	194 
1	218 
1	387 
1	138 
1	7 
1	255 
1	29 
1	373 
1	413 
1	164 
1	231 
1	420 
1	425 
1	165 
1	349 
1	306 
1	118 
1	106 
1	170 
1	350 
1	382 
1	392 
1	313 
1	210 
1	386 
1	241 
1	162 
1	257 
1	120 
1	167 
1	266 
1	25 
1	347 
1	27 
1	104 
1	76 
1	421 
1	155 
1	273 
1	253 
1	43 
1	99 
1	298 
1	51 
1	428 
1	185 
1	151 
1	398 
1	212 
1	192 
1	65 
1	327 
1	10 
1	57 
1	109 
1	303 
1	216 
1	261 
1	62 
1	149 
1	429 
1	204 
1	191 
1	97 
1	284 
1	125 
1	180 
1	393 
1	82 
1	71 
1	396 
1	9 
1	17 
1	276 
1	190 
1	40 
1	56 
1	81 
1	374 
1	135 
1	332 
1	408 
1	260 
1	394 
1	111 
1	242 
1	79 
1	245 
1	55 
1	3 
1	24 
1	203 
1	198 
1	376 
1	239 
1	221 
1	258 
1	140 
1	189 
1	309 
1	354 
1	182 
1	416 
1	274 
1	59 
1	362 
1	153 
1	290 
1	315 
1	288 
1	152 
1	85 
1	252 
1	310 
1	117 
1	119 
1	334 
1	213 
1	178 
1	186 
1	358 
1	368 
1	207 
1	249 
1	391 
1	147 
1	329 
1	282 
1	6 
1	44 
1	58 
1	53 
1	156 
1	8 
1	20 
1	145 
1	293 
1	88 
1	32 
1	77 
1	321 
1	417 
1	280 
1	352 
1	275 
1	267 
1	397 
1	176 
1	30 
1	2 
1	38 
1	197 
1	146 
1	132 
1	4 
1	19 
1	89 
1	199 
1	340 
1	102 
1	337 
1	66 
1	110 
1	83 
1	410 
1	272 
1	33 
1	407 
1	336 
1	279 
1	28 
1	14 
1	92 
1	256 
1	48 
1	72 
1	287 
1	101 
1	237 
1	325 
1	126 
1	335 
1	217 
1	338 
1	301 
1	308 
1	187 
1	86 
1	381 
1	322 
1	246 
1	312 
1	206 
1	259 
1	402 
1	139 
1	11 
1	240 
1	285 
1	366 
1	157 
1	174 
1	209 
1	238 
1	52 
1	171 
1	369 
1	384 
1	403 
1	356 
1	302 
1	389 
1	127 
1	175 
1	69 
1	385 
1	150 
1	361 
1	183 
1	159 
1	23 
1	84 
1	93 
1	154 
1	292 
1	42 
1	341 
1	96 
1	227 
1	67 
1	371 
1	365 
1	423 
1	333 
1	41 
1	359 
1	378 
1	73 
1	418 
1	169 
1	411 
1	136 
1	68 
1	121 
1	87 
1	142 
1	320 
1	265 
1	380 
1	130 
1	222 
1	211 
1	406 
1	355 
1	360 
1	344 
1	370 
1	124 
1	294 
1	297 
1	13 
1	98 
1	367 
1	61 
1	229 
1	115 
1	107 
1	304 
1	39 
1	91 
1	289 
1	317 
1	248 
1	74 
1	388 
1	70 
1	137 
1	47 
1	268 
1	18 
1	264 
1	283 
1	224 
1	49 
1	415 
1	193 
1	395 
1	188 
1	160 
1	342 
1	291 
1	401 
1	148 
1	168 
1	208 
1	0 
1	173 
1	295 
1	131 
1	116 
1	339 
1	134 
1	409 
1	105 
1	323 
1	181 
1	16 
1	419 
1	143 
1	75 
1	324 
1	179 
1	399 
1	427 
1	123 
1	63 
1	5 
1	318 
1	254 
1	383 
1	31 
1	405 
1	114 
1	414 
1	54 
1	205 
1	351 
1	244 
1	22 
1	64 
1	278 
1	331 
1	200 
1	314 
1	103 
1	50 
1	235 
1	232 
1	202 
1	128 
1	220 
1	311 
1	377 
1	316 
1	12 
1	281 
1	343 
1	426 
1	177 
1	372 
1	230 
1	300 
1	330 
1	247 
1	60 
1	299 
1	363 
1	90 
1	195 
1	345 
1	214 
1	234 
1	223 
1	161 
1	144 
1	236 
1	243 
1	270 
1	269 
1	286 
1	35 
1	424 
1	228 
1	307 
1	158 
1	271 
1	357 
1	37 
1	422 
1	26 
1	1 
1	346 
1	34 
1	201 
1	45 
1	46 
1	263 
1	400 
1	262 
1	172 
1	277 
1	319 
1	250 
1	404 
0	

8
 1 0 0.5 0.5 0.5 0.5 0.25 0.75
8
 1 0 0 1 0.6 0 0.4 1
8
 1 0 0 1 0.5 0 0.5 1
8
 1 0 0 1 0.55 0 0.45 1
8
 1 0 0 1 0.1 0 0.9 1
8
 1 0 0 1 0.5 0 0.5 1
8
 1 0 0 1 0.55 0 0.45 1
8
 1 0 0 1 0.5 0 0.5 1
8
 1 0 0 1 0 0 1 1
8
 1 0 0 1 0.2 0 0.8 1
8
 1 0 0 1 0.1 0 0.9 1
8
 1 0 0 1 0 0 1 1
8
 1 0 0 1 0.01 0 0.99 1
2
 0.03 1
8
 1 0 0.1 0.9 0.1 0.9 0.01 0.99
2
 0.03 1
2
 0.03 0.806
8
 1 0 0.05 0.95 0.05 0.95 0.0025 0.9975
8
 1 0 0 1 0.05 0 0.95 1
2
 0.03 1
2
 0.03 0.709
8
 1 0 0.5 0.5 0.2 0.8 0.1 0.9
8
 1 0 0 1 0.05 0 0.95 1
2
 0.03 1
8
 1 0 0 1 0.8 0.2 0 1
8
 1 0 0 1 0.89 0 0.11 1
8
 1 0 0 1 0.5 0 0.5 1
8
 1 0 0 1 0.5 0 0.5 1
8
 1 0 0 1 0.6 0 0.4 1
8
 1 0 0 1 0.01 0 0.99 1
8
 1 0 0 1 0.5 0 0.5 1
8
 1 0 0 1 0.5 0 0.5 1
2
 0.03 1
8
 1 0 0 1 0.9 0.1 0 1
8
 1 0 0 1 0.2 0 0.8 1
8
 1 0 0 1 0.5 0 0.5 1
8
 1 0 0 1 0 0 1 1
8
 1 0 0 1 0.9 0 0.1 1
8
 1 0 0 1 0.5 0 0.5 1
8
 1 0 0 1 0.5 0 0.5 1
8
 1 0 0 1 0 0 1 1
8
 1 0 0 1 0.89 0 0.11 1
8
 1 0 0 1 0.5 0 0.5 1
8
 1 0 0 1 0.2 0 0.8 1
8
 1 0 0 1 0.1 0 0.9 1
8
 1 0 0 1 0.5 0 0.5 1
8
 1 0 0 1 0.5 0 0.5 1
8
 1 0 0 1 0.1 0 0.9 1
8
 1 0 0 1 0 0 1 1
8
 1 0 0 1 0.5 0 0.5 1
8
 1 0 0 1 0.01 0 0.99 1
8
 1 0 0 1 0 0 1 1
8
 1 0 0 1 0 0 1 1
8
 1 0 0 1 0 0 1 1
8
 1 0 0 1 0.9 0 0.1 1
8
 1 0 0 1 0.5 0 0.5 1
8
 1 0 0 1 0 0 1 1
8
 1 0 0 1 0.5 0 0.5 1
8
 1 0 0 1 0.9 0 0.1 1
8
 1 0 0 1 0.5 0 0.5 1
8
 1 0 0 1 0 0 1 1
8
 1 0 0 1 0.1 0 0.9 1
8
 1 0 0 1 0.5 0 0.5 1
8
 1 0 0 1 0.9 0 0.1 1
8
 1 0 0 1 0.5 0 0.5 1
8
 1 0 0 1 0.5 0 0.5 1
8
 1 0 0 1 0.9 0 0.1 1
8
 1 0 0 1 0.09 0 0.91 1
8
 1 0 0 1 0.5 0 0.5 1
8
 1 0 0 1 0.1 0 0.9 1
8
 1 0 0 1 0.5 0 0.5 1
8
 1 0 0 1 0.9 0 0.1 1
8
 1 0 0 1 0.09 0 0.91 1
8
 1 0 0 1 0.5 0 0.5 1
8
 1 0 0 1 0.5 0 0.5 1
8
 1 0 0 1 0 0 1 1
8
 1 0 0 1 0.5 0 0.5 1
8
 1 0 0 1 0 0 1 1
8
 1 0 0 1 0 0 1 1
8
 1 0 0 1 0.5 0 0.5 1
8
 1 0 0 1 0.1 0 0.9 1
8
 1 0 0 1 0.57 0 0.43 1
8
 1 0 0 1 0 0 1 1
8
 1 0 0 1 0 0 1 1
8
 1 0 0 1 0.5 0 0.5 1
8
 1 0 0 1 0.5 0 0.5 1
8
 1 0 0 1 0 0 1 1
8
 1 0 0 1 0.5 0 0.5 1
8
 1 0 0 1 0.1 0 0.9 1
8
 1 0 0 1 0.5 0 0.5 1
8
 1 0 0 1 0.1 0 0.9 1
8
 1 0 0 1 0.5 0 0.5 1
8
 1 0 0 1 0.4 0 0.6 1
8
 1 0 0 1 0.5 0 0.5 1
8
 1 0 0 1 0 0 1 1
8
 1 0 0 1 0.5 0 0.5 1
8
 1 0 0 1 0.9 0 0.1 1
8
 1 0 0 1 0.5 0 0.5 1
8
 1 0 0 1 0.89 0 0.11 1
8
 1 0 0 1 0.5 0 0.5 1
8
 1 0 0 1 0.5 0 0.5 1
8
 1 0 0 1 0.5 0 0.5 1
8
 1 0 0 1 0.5 0 0.5 1
8
 1 0 0 1 0 0 1 1
8
 1 0 0 1 0.1 0 0.9 1
8
 1 0 0 1 0.6 0 0.4 1
8
 1 0 0 1 0.5 0 0.5 1
8
 1 0 0 1 0.1 0 0.9 1
8
 1 0 0 1 0.5 0 0.5 1
8
 1 0 0 1 0 0 1 1
8
 1 0 0 1 0 0 1 1
8
 1 0 0 1 0.1 0 0.9 1
8
 1 0 0 1 0.59 0 0.41 1
8
 1 0 0 1 0 0 1 1
8
 1 0 0 1 0.4 0 0.6 1
8
 1 0 0 1 0 0 1 1
8
 1 0 0 1 0.5 0 0.5 1
8
 1 0 0 1 0.9 0 0.1 1
8
 1 0 0 1 0.5 0 0.5 1
8
 1 0 0 1 0 0 1 1
8
 1 0 0 1 0 0 1 1
8
 1 0 0 1 0.9 0 0.1 1
8
 1 0 0 1 0.6 0 0.4 1
8
 1 0 0 1 0.5 0 0.5 1
8
 1 0 0 1 0.1 0 0.9 1
8
 1 0 0 1 0 0 1 1
8
 1 0 0 1 0.5 0 0.5 1
8
 1 0 0 1 0.09 0 0.91 1
8
 1 0 0 1 0 0 1 1
8
 1 0 0 1 0 0 1 1
8
 1 0 0 1 0 0 1 1
8
 1 0 0 1 0 0 1 1
8
 1 0 0 1 0.89 0 0.11 1
8
 1 0 0 1 0 0 1 1
8
 1 0 0 1 0.5 0 0.5 1
8
 1 0 0 1 0.5 0 0.5 1
8
 1 0 0 1 0.5 0 0.5 1
8
 1 0 0 1 0.5 0 0.5 1
8
 1 0 0 1 0.5 0 0.5 1
8
 1 0 0 1 0 0 1 1
8
 1 0 0 1 0.5 0 0.5 1
8
 1 0 0 1 0.4 0 0.6 1
8
 1 0 0 1 0.5 0 0.5 1
8
 1 0 0 1 0.7 0 0.3 1
8
 1 0 0 1 0.5 0 0.5 1
8
 1 0 0 1 0.89 0 0.11 1
8
 1 0 0 1 0.5 0 0.5 1
8
 1 0 0 1 0.9 0 0.1 1
8
 1 0 0 1 0 0 1 1
8
 1 0 0 1 0.9 0 0.1 1
8
 1 0 0 1 0.5 0 0.5 1
8
 1 0 0 1 0.5 0 0.5 1
8
 1 0 0 1 0 0 1 1
8
 1 0 0 1 0.75 0 0.25 1
8
 1 0 0 1 0 0 1 1
8
 1 0 0 1 0.09 0 0.91 1
8
 1 0 0 1 0.5 0 0.5 1
8
 1 0 0 1 0.5 0 0.5 1
8
 1 0 0 1 0 0 1 1
8
 1 0 0 1 0.9 0 0.1 1
8
 1 0 0 1 0.7 0 0.3 1
8
 1 0 0 1 0.4 0 0.6 1
8
 1 0 0 1 0.5 0 0.5 1
8
 1 0 0 1 0.1 0 0.9 1
8
 1 0 0 1 0 0 1 1
8
 1 0 0 1 0.6 0 0.4 1
8
 1 0 0 1 0.5 0 0.5 1
8
 1 0 0 1 0.4 0 0.6 1
8
 1 0 0 1 0.9 0 0.1 1
8
 1 0 0 1 0.5 0 0.5 1
8
 1 0 0 1 0.9 0 0.1 1
8
 1 0 0 1 0 0 1 1
8
 1 0 0 1 0 0 1 1
8
 1 0 0 1 0 0 1 1
8
 1 0 0 1 0 0 1 1
8
 1 0 0 1 0.09 0 0.91 1
8
 1 0 0 1 0 0 1 1
8
 1 0 0 1 0.9 0 0.1 1
8
 1 0 0 1 0.5 0 0.5 1
8
 1 0 0 1 0 0 1 1
8
 1 0 0 1 0 0 1 1
8
 1 0 0 1 0.9 0 0.1 1
8
 1 0 0 1 0.9 0 0.1 1
8
 1 0 0 1 0 0 1 1
8
 1 0 0 1 0.05 0 0.95 1
8
 1 0 0 1 0.5 0 0.5 1
8
 1 0 0 1 0.5 0 0.5 1
8
 1 0 0 1 0 0 1 1
8
 1 0 0 1 0.5 0 0.5 1
8
 1 0 0 1 0 0 1 1
8
 1 0 0 1 0.1 0 0.9 1
8
 1 0 0 1 0 0 1 1
8
 1 0 0 1 0.5 0 0.5 1
8
 1 0 0 1 0 0 1 1
8
 1 0 0 1 0 0 1 1
8
 1 0 0 1 0.9 0 0.1 1
8
 1 0 0 1 0.01 0 0.99 1
2
 0.03 1
8
 1 0 0.8 0.2 0 1 0 1
8
 1 0 0 1 0.5 0 0.5 1
8
 1 0 0 1 0.5 0 0.5 1
8
 1 0 0 1 0.5 0 0.5 1
8
 1 0 0 1 0.5 0 0.5 1
8
 1 0 0 1 0.3 0 0.7 1
8
 1 0 0 1 0.39 0 0.61 1
8
 1 0 0 1 0.5 0 0.5 1
8
 1 0 0 1 0.89 0 0.11 1
8
 1 0 0 1 0.5 0 0.5 1
8
 1 0 0 1 0.01 0 0.99 1
8
 1 0 0 1 0.7 0 0.3 1
8
 1 0 0 1 0.5 0 0.5 1
8
 1 0 0 1 0.1 0 0.9 1
8
 1 0 0 1 0.5 0 0.5 1
8
 1 0 0 1 0.89 0 0.11 1
8
 1 0 0 1 0 0 1 1
8
 1 0 0 1 0.5 0 0.5 1
8
 1 0 0 1 0.5 0 0.5 1
8
 1 0 0 1 0.5 0 0.5 1
8
 1 0 0 1 0.1 0 0.9 1
8
 1 0 0 1 0.8 0 0.2 1
8
 1 0 0 1 0.7 0 0.3 1
8
 1 0 0 1 0.5 0 0.5 1
8
 1 0 0 1 0.5 0 0.5 1
8
 1 0 0 1 0.5 0 0.5 1
8
 1 0 0 1 0.7 0 0.3 1
8
 1 0 0 1 0.5 0 0.5 1
8
 1 0 0 1 0 0 1 1
8
 1 0 0 1 0.9 0 0.1 1
2
 0.03 1
8
 1 0 0.9 0.1 0.9 0.1 0.81 0.19
8
 1 0 0 1 0 0 1 1
8
 1 0 0 1 0.3 0 0.7 1
8
 1 0 0 1 0.05 0 0.95 1
8
 1 0 0 1 0.5 0 0.5 1
8
 1 0 0 1 0.9 0 0.1 1
8
 1 0 0 1 0 0 1 1
8
 1 0 0 1 0.5 0 0.5 1
8
 1 0 0 1 0.89 0 0.11 1
8
 1 0 0 1 0.9 0 0.1 1
8
 1 0 0 1 0.9 0 0.1 1
8
 1 0 0 1 0.9 0 0.1 1
8
 1 0 0 1 0.9 0 0.1 1
8
 1 0 0 1 0.5 0 0.5 1
8
 1 0 0 1 0.9 0 0.1 1
8
 1 0 0 1 0 0 1 1
8
 1 0 0 1 0 0 1 1
8
 1 0 0 1 0.89 0 0.11 1
8
 1 0 0 1 0.9 0 0.1 1
8
 1 0 0 1 0.9 0 0.1 1
8
 1 0 0 1 0.5 0 0.5 1
8
 1 0 0 1 0.05 0 0.95 1
8
 1 0 0 1 0.89 0 0.11 1
8
 1 0 0 1 0.9 0 0.1 1
8
 1 0 0 1 0.4 0 0.6 1
8
 1 0 0 1 0.9 0 0.1 1
8
 1 0 0 1 0.9 0 0.1 1
8
 1 0 0 1 0.8 0 0.2 1
8
 1 0 0 1 0.9 0 0.1 1
8
 1 0 0 1 0.94 0 0.06 1
8
 1 0 0 1 0.5 0 0.5 1
8
 1 0 0 1 0 0 1 1
8
 1 0 0 1 0.89 0 0.11 1
8
 1 0 0 1 0.3 0 0.7 1
8
 1 0 0 1 0.02 0 0.98 1
8
 1 0 0 1 0.9 0 0.1 1
8
 1 0 0 1 0.9 0 0.1 1
8
 1 0 0 1 0.3 0 0.7 1
8
 1 0 0 1 0.9 0 0.1 1
8
 1 0 0 1 0.9 0 0.1 1
8
 1 0 0 1 0.5 0 0.5 1
8
 1 0 0 1 0.3 0 0.7 1
8
 1 0 0 1 0.09 0 0.91 1
8
 1 0 0 1 0.3 0 0.7 1
8
 1 0 0 1 0.9 0 0.1 1
8
 1 0 0 1 0.9 0 0.1 1
8
 1 0 0 1 0.3 0 0.7 1
8
 1 0 0 1 0.94 0 0.06 1
8
 1 0 0 1 0.9 0 0.1 1
8
 1 0 0 1 0.79 0 0.21 1
8
 1 0 0 1 0.5 0 0.5 1
8
 1 0 0 1 0.5 0 0.5 1
8
 1 0 0 1 0.5 0 0.5 1
8
 1 0 0 1 0.9 0 0.1 1
8
 1 0 0 1 0.01 0 0.99 1
8
 1 0 0 1 0.89 0 0.11 1
8
 1 0 0 1 0.8 0 0.2 1
8
 1 0 0 1 0.3 0 0.7 1
8
 1 0 0 1 0.89 0 0.11 1
8
 1 0 0 1 0.9 0 0.1 1
8
 1 0 0 1 0.9 0 0.1 1
8
 1 0 0 1 0.85 0 0.15 1
8
 1 0 0 1 0.89 0 0.11 1
8
 1 0 0 1 0.89 0 0.11 1
8
 1 0 0 1 0.8 0 0.2 1
8
 1 0 0 1 0.89 0 0.11 1
8
 1 0 0 1 0.3 0 0.7 1
8
 1 0 0 1 0.8 0 0.2 1
8
 1 0 0 1 0.9 0 0.1 1
8
 1 0 0 1 0.9 0 0.1 1
8
 1 0 0 1 0.5 0 0.5 1
8
 1 0 0 1 0.9 0 0.1 1
8
 1 0 0 1 0.8 0 0.2 1
8
 1 0 0 1 0.01 0 0.99 1
8
 1 0 0 1 0.9 0 0.1 1
8
 1 0 0 1 0.9 0 0.1 1
8
 1 0 0 1 0.9 0 0.1 1
8
 1 0 0 1 0.8 0 0.2 1
8
 1 0 0 1 0.7 0 0.3 1
8
 1 0 0 1 0.2 0 0.8 1
8
 1 0 0 1 0.05 0 0.95 1
8
 1 0 0 1 0.8 0 0.2 1
8
 1 0 0 1 0.89 0 0.11 1
8
 1 0 0 1 0.9 0 0.1 1
8
 1 0 0 1 0.3 0 0.7 1
8
 1 0 0 1 0.9 0 0.1 1
8
 1 0 0 1 0.9 0 0.1 1
8
 1 0 0 1 0.5 0 0.5 1
8
 1 0 0 1 0.9 0 0.1 1
8
 1 0 0 1 0.5 0 0.5 1
8
 1 0 0 1 0 0 1 1
8
 1 0 0 1 0.4 0 0.6 1
8
 1 0 0 1 0.9 0 0.1 1
8
 1 0 0 1 0.3 0 0.7 1
8
 1 0 0 1 0.8 0 0.2 1
8
 1 0 0 1 0 0 1 1
8
 1 0 0 1 0.89 0 0.11 1
8
 1 0 0 1 0.3 0 0.7 1
8
 1 0 0 1 0.8 0 0.2 1
8
 1 0 0 1 0.61 0 0.39 1
8
 1 0 0 1 0.86 0 0.14 1
8
 1 0 0 1 0.9 0 0.1 1
8
 1 0 0 1 0.94 0 0.06 1
8
 1 0 0 1 0.3 0 0.7 1
8
 1 0 0 1 0.01 0 0.99 1
8
 1 0 0 1 0.9 0 0.1 1
8
 1 0 0 1 0.9 0 0.1 1
8
 1 0 0 1 0.9 0 0.1 1
8
 1 0 0 1 0.9 0 0.1 1
8
 1 0 0 1 0.5 0 0.5 1
8
 1 0 0 1 0.1 0 0.9 1
8
 1 0 0 1 0.9 0 0.1 1
8
 1 0 0 1 0.9 0 0.1 1
8
 1 0 0 1 0.9 0 0.1 1
8
 1 0 0 1 0.9 0 0.1 1
8
 1 0 0 1 0 0 1 1
8
 1 0 0 1 0.9 0 0.1 1
8
 1 0 0 1 0.5 0 0.5 1
8
 1 0 0 1 0.5 0 0.5 1
8
 1 0 0 1 0.1 0 0.9 1
8
 1 0 0 1 0 0 1 1
8
 1 0 0 1 0 0 1 1
8
 1 0 0 1 0.3 0 0.7 1
8
 1 0 0 1 0.5 0 0.5 1
8
 1 0 0 1 0.2 0 0.8 1
8
 1 0 0 1 0.9 0 0.1 1
8
 1 0 0 1 0.5 0 0.5 1
8
 1 0 0 1 0.89 0 0.11 1
8
 1 0 0 1 0.8 0 0.2 1
8
 1 0 0 1 0.89 0 0.11 1
8
 1 0 0 1 0.89 0 0.11 1
8
 1 0 0 1 0.89 0 0.11 1
8
 1 0 0 1 0.9 0 0.1 1
8
 1 0 0 1 0.5 0 0.5 1
8
 1 0 0 1 0.3 0 0.7 1
8
 1 0 0 1 0.9 0 0.1 1
8
 1 0 0 1 0.8 0 0.2 1
8
 1 0 0 1 0.8 0 0.2 1
8
 1 0 0 1 0.5 0 0.5 1
8
 1 0 0 1 0.8 0 0.2 1
8
 1 0 0 1 0.01 0 0.99 1
8
 1 0 0 1 0.5 0 0.5 1
8
 1 0 0 1 0.9 0 0.1 1
8
 1 0 0 1 0 0 1 1
8
 1 0 0 1 0.3 0 0.7 1
8
 1 0 0 1 0.4 0 0.6 1
8
 1 0 0 1 0.8 0 0.2 1
8
 1 0 0 1 0.9 0 0.1 1
8
 1 0 0 1 0.9 0 0.1 1
8
 1 0 0 1 0.89 0 0.11 1
8
 1 0 0 1 0.2 0 0.8 1
8
 1 0 0 1 0.9 0 0.1 1
8
 1 0 0 1 0.89 0 0.11 1
8
 1 0 0 1 0.94 0 0.06 1
2
 0.03 1
8
 1 0 0 1 0.5 0.5 0 1
8
 1 0 0 1 0.5 0 0.5 1
8
 1 0 0 1 0 0 1 1
8
 1 0 0 1 0.89 0 0.11 1
8
 1 0 0 1 0 0 1 1
8
 1 0 0 1 0.1 0 0.9 1
8
 1 0 0 1 0.01 0 0.99 1
8
 1 0 0 1 0.89 0 0.11 1
8
 1 0 0 1 0.01 0 0.99 1
8
 1 0 0 1 0.5 0 0.5 1
2
 0.03 1
8
 1 0 0.5 0.5 0.3 0.7 0.15 0.85
8
 1 0 0 1 0.5 0 0.5 1
2
 0.03 1
8
 1 0 0.5 0.5 0.4 0.6 0.2 0.8
8
 1 0 0 1 0.89 0 0.11 1
8
 1 0 0 1 0.4 0 0.6 1
8
 1 0 0 1 0.5 0 0.5 1
8
 1 0 0 1 0.5 0 0.5 1
8
 1 0 0 1 0.6 0 0.4 1
8
 1 0 0 1 0.9 0 0.1 1
8
 1 0 0 1 0.01 0 0.99 1
8
 1 0 0 1 0.5 0 0.5 1
8
 1 0 0 1 0.5 0 0.5 1
8
 1 0 0 1 0.05 0 0.95 1
8
 1 0 0 1 0.5 0 0.5 1
8
 1 0 0 1 0.95 0 0.05 1
8
 1 0 0 1 0.5 0 0.5 1
8
 1 0 0 1 0.05 0 0.95 1
8
 1 0 0 1 0.5 0 0.5 1
8
 1 0 0 1 0.5 0 0.5 1
8
 1 0 0 1 0.5 0 0.5 1
8
 1 0 0 1 0.1 0 0.9 1
8
 1 0 0 1 0.5 0 0.5 1
8
 1 0 0 1 0.5 0 0.5 1
8
 1 0 0 1 0.5 0 0.5 1
2
 0.03 1
8
 1 0 0.1 0.9 0.5 0.5 0.05 0.95
8
 1 0 0 1 0.5 0 0.5 1
8
 1 0 0 1 0.1 0 0.9 1
8
 1 0 0 1 0.1 0 0.9 1
8
 1 0 0 1 0.1 0 0.9 1
8
 1 0 0 1 0.09 0 0.91 1
8
 1 0 0 1 0.5 0 0.5 1
8
 1 0 0 1 0.01 0 0.99 1
8
 1 0 0 1 0.95 0 0.05 1
8
 1 0 0 1 0.5 0 0.5 1
8
 1 0 0 1 0.19 0 0.81 1
8
 1 0 0 1 0.01 0 0.99 1
8
 1 0 0 1 0.01 0 0.99 1
8
 1 0 0 1 0.09 0 0.91 1
8
 1 0 0 1 0.5 0 0.5 1
8
 1 0 0 1 0.01 0 0.99 1
8
 1 0 0 1 0.1 0 0.9 1
8
 1 0 0 1 0.05 0 0.95 1
8
 1 0 0 1 0.1 0 0.9 1
8
 1 0 0 1 0.19 0 0.81 1
8
 1 0 0 1 0.19 0 0.81 1
8
 1 0 0 1 0.1 0 0.9 1
8
 1 0 0 1 0.05 0 0.95 1
8
 1 0 0 1 0.5 0 0.5 1
8
 1 0 0 1 0.05 0 0.95 1
8
 1 0 0 1 0.01 0 0.99 1
8
 1 0 0 1 0.5 0 0.5 1
8
 1 0 0 1 0.2 0 0.8 1
8
 1 0 0 1 0.1 0 0.9 1
8
 1 0 0 1 0.5 0 0.5 1
8
 1 0 0 1 0.5 0 0.5 1
8
 1 0 0 1 0.95 0 0.05 1
8
 1 0 0 1 0.89 0 0.11 1
8
 1 0 0 1 0.5 0 0.5 1
8
 1 0 0 1 0.5 0 0.5 1
8
 1 0 0 1 0.01 0 0.99 1
8
 1 0 0 1 0.5 0 0.5 1
8
 1 0 0 1 0.2 0 0.8 1
8
 1 0 0 1 0.5 0 0.5 1
8
 1 0 0 1 0.5 0 0.5 1
8
 1 0 0 1 0.09 0 0.91 1
8
 1 0 0 1 0.19 0 0.81 1
8
 1 0 0 1 0.5 0 0.5 1
8
 1 0 0 1 0.09 0 0.91 1
8
 1 0 0 1 0.5 0 0.5 1
8
 1 0 0 1 0.59 0 0.41 1
8
 1 0 0 1 0.5 0 0.5 1
8
 1 0 0 1 0.1 0 0.9 1
8
 1 0 0 1 0.1 0 0.9 1
8
 1 0 0 1 0.01 0 0.99 1
8
 1 0 0 1 0.3 0 0.7 1
8
 1 0 0 1 0.1 0 0.9 1
8
 1 0 0 1 0.5 0 0.5 1
8
 1 0 0 1 0.5 0 0.5 1
8
 1 0 0 1 0.19 0 0.81 1
8
 1 0 0 1 0.5 0 0.5 1
8
 1 0 0 1 0.19 0 0.81 1
8
 1 0 0 1 0.09 0 0.91 1
8
 1 0 0 1 0.1 0 0.9 1
8
 1 0 0 1 0.5 0 0.5 1
8
 1 0 0 1 0.5 0 0.5 1
8
 1 0 0 1 0.59 0 0.41 1
8
 1 0 0 1 0.05 0 0.95 1
8
 1 0 0 1 0.19 0 0.81 1
8
 1 0 0 1 0.05 0 0.95 1
8
 1 0 0 1 0.2 0 0.8 1
8
 1 0 0 1 0.1 0 0.9 1
8
 1 0 0 1 0.5 0 0.5 1
8
 1 0 0 1 0.5 0 0.5 1
8
 1 0 0 1 0.1 0 0.9 1
2
 0.03 1
8
 1 0 0.1 0.9 0.5 0.5 0.05 0.95
8
 1 0 0 1 0.1 0 0.9 1
8
 1 0 0 1 0.89 0 0.11 1
8
 1 0 0 1 0.01 0 0.99 1
8
 1 0 0 1 0.5 0 0.5 1
8
 1 0 0 1 0.89 0 0.11 1
8
 1 0 0 1 0 0 1 1
8
 1 0 0 1 0.89 0 0.11 1
8
 1 0 0 1 0.5 0 0.5 1
8
 1 0 0 1 0.5 0 0.5 1
8
 1 0 0 1 0.01 0 0.99 1
8
 1 0 0 1 0.7 0 0.3 1
8
 1 0 0 1 0.5 0 0.5 1
8
 1 0 0 1 0.7 0 0.3 1
8
 1 0 0 1 0.01 0 0.99 1
8
 1 0 0 1 0.5 0 0.5 1
8
 1 0 0 1 0 0 1 1
8
 1 0 0 1 0.5 0 0.5 1
8
 1 0 0 1 0.89 0 0.11 1
8
 1 0 0 1 0.5 0 0.5 1
8
 1 0 0 1 0.89 0 0.11 1
8
 1 0 0 1 0.78 0 0.22 1
8
 1 0 0 1 0.5 0 0.5 1
8
 1 0 0 1 0.89 0 0.11 1
8
 1 0 0 1 0.1 0 0.9 1
8
 1 0 0 1 0.7 0 0.3 1
8
 1 0 0 1 0.89 0 0.11 1
8
 1 0 0 1 0.5 0 0.5 1
8
 1 0 0 1 0.89 0 0.11 1
8
 1 0 0 1 0.5 0 0.5 1
8
 1 0 0 1 0.5 0 0.5 1
8
 1 0 0 1 0 0 1 1
8
 1 0 0 1 0.89 0 0.11 1
8
 1 0 0 1 0.7 0 0.3 1
8
 1 0 0 1 0.89 0 0.11 1
8
 1 0 0 1 0.5 0 0.5 1
8
 1 0 0 1 0.8 0 0.2 1
8
 1 0 0 1 0.4 0 0.6 1
8
 1 0 0 1 0.89 0 0.11 1
8
 1 0 0 1 0.5 0 0.5 1
8
 1 0 0 1 0.89 0 0.11 1
2
 0.03 1
8
 1 0 0.89 0.11 0.5 0.5 0.445 0.555
8
 1 0 0 1 0.05 0 0.95 1
8
 1 0 0 1 0.5 0 0.5 1
8
 1 0 0 1 0.2 0 0.8 1
8
 1 0 0 1 0.5 0 0.5 1
8
 1 0 0 1 0.4 0 0.6 1
8
 1 0 0 1 0.89 0 0.11 1
8
 1 0 0 1 0.5 0 0.5 1
8
 1 0 0 1 0.5 0 0.5 1
8
 1 0 0 1 0.89 0 0.11 1
8
 1 0 0 1 0.5 0 0.5 1
8
 1 0 0 1 0.5 0 0.5 1
8
 1 0 0 1 0.5 0 0.5 1
8
 1 0 0 1 0.9 0 0.1 1
8
 1 0 0 1 0.5 0 0.5 1
8
 1 0 0 1 0.2 0 0.8 1
8
 1 0 0 1 0.6 0 0.4 1
8
 1 0 0 1 0.5 0 0.5 1
8
 1 0 0 1 0.5 0 0.5 1
8
 1 0 0 1 0.5 0 0.5 1
8
 1 0 0 1 0.9 0 0.1 1
8
 1 0 0 1 0.89 0 0.11 1
8
 1 0 0 1 0.89 0 0.11 1
8
 1 0 0 1 0.5 0 0.5 1
8
 1 0 0 1 0 0 1 1
8
 1 0 0 1 0.1 0 0.9 1
8
 1 0 0 1 0.7 0 0.3 1
8
 1 0 0 1 0.5 0 0.5 1
8
 1 0 0 1 0.5 0 0.5 1
8
 1 0 0 1 0.5 0 0.5 1
8
 1 0 0 1 0.5 0 0.5 1
8
 1 0 0 1 0.2 0 0.8 1
8
 1 0 0 1 0.5 0 0.5 1
2
 0.03 1
8
 1 0 0.57 0.43 0.5 0.5 0.285 0.715
8
 1 0 0 1 0.1 0 0.9 1
8
 1 0 0 1 0.09 0 0.91 1
8
 1 0 0 1 0.5 0 0.5 1
8
 1 0 0 1 0.1 0 0.9 1
8
 1 0 0 1 0.5 0 0.5 1
8
 1 0 0 1 0.5 0 0.5 1
8
 1 0 0 1 0.5 0 0.5 1
8
 1 0 0 1 0.01 0 0.99 1
8
 1 0 0 1 0.5 0 0.5 1
8
 1 0 0 1 0.5 0 0.5 1
8
 1 0 0 1 0.4 0 0.6 1
8
 1 0 0 1 0.1 0 0.9 1
8
 1 0 0 1 0.01 0 0.99 1
8
 1 0 0 1 0.2 0 0.8 1
2
 0.03 1
8
 1 0 0.2 0.8 0.5 0.5 0.1 0.9
8
 1 0 0 1 0.5 0 0.5 1
8
 1 0 0 1 0.5 0 0.5 1
8
 1 0 0 1 0.01 0 0.99 1
8
 1 0 0 1 0.89 0 0.11 1
8
 1 0 0 1 0.5 0 0.5 1
8
 1 0 0 1 0.5 0 0.5 1
8
 1 0 0 1 0.1 0 0.9 1
8
 1 0 0 1 0.5 0 0.5 1
8
 1 0 0 1 0.89 0 0.11 1
8
 1 0 0 1 0.9 0 0.1 1
8
 1 0 0 1 0.5 0 0.5 1
8
 1 0 0 1 0 0 1 1
8
 1 0 0 1 0.5 0 0.5 1
8
 1 0 0 1 0.5 0 0.5 1
8
 1 0 0 1 0.01 0 0.99 1
8
 1 0 0 1 0.5 0 0.5 1
8
 1 0 0 1 0.9 0 0.1 1
8
 1 0 0 1 0.01 0 0.99 1
8
 1 0 0 1 0.89 0 0.11 1
8
 1 0 0 1 0.89 0 0.11 1
8
 1 0 0 1 0.5 0 0.5 1
8
 1 0 0 1 0.01 0 0.99 1
8
 1 0 0 1 0.5 0 0.5 1
8
 1 0 0 1 0.01 0 0.99 1
8
 1 0 0 1 0.5 0 0.5 1
8
 1 0 0 1 0.3 0 0.7 1
8
 1 0 0 1 0.5 0 0.5 1
8
 1 0 0 1 0.1 0 0.9 1
8
 1 0 0 1 0.5 0 0.5 1
8
 1 0 0 1 0.09 0 0.91 1
8
 1 0 0 1 0.5 0 0.5 1
8
 1 0 0 1 0.89 0 0.11 1
8
 1 0 0 1 0.5 0 0.5 1
8
 1 0 0 1 0 0 1 1
2
 0.03 1
2
 0.99995 5e-05
2
 0.99968 0.00032
2
 0.9999 0.0001
2
 0.999995 5e-06
2
 0.9999 0.0001
2
 0.99999 1e-05
2
 0.9999 0.0001
2
 0.99975 0.00025
2
 0.9999 0.0001
2
 0.99998 2e-05
2
 0.99998 2e-05
2
 0.9998 0.0002
2
 0.999993 7e-06
2
 0.99996 4e-05
2
 0.9998 0.0002
2
 1 4e-08
2
 0.99999 1e-05
2
 0.999999 1.4e-06
2
 0.99995 5e-05
2
 0.999998 2e-06
2
 0.9999 0.0001
2
 0.999977 2.342e-05
2
 0.99989 0.00011
2
 0.99998 2e-05
2
 0.9999 0.0001
2
 0.99998 2e-05
2
 0.9999 0.0001
2
 0.99998 2e-05
2
 0.99999 1e-05
2
 0.99995 5e-05
2
 0.99992 8e-05
2
 1 1.1e-07
2
 0.99998 2e-05
2
 0.999995 5e-06
2
 0.9999 0.0001
2
 0.99999 1e-05
2
 0.999999 1.26e-06
2
 0.99996 4e-05
2
 0.9999 0.0001
2
 0.99998 2e-05
2
 0.9999 0.0001
2
 0.9995 0.0005
2
 0.9999 0.0001
2
 0.9999 0.0001
2
 0.9999 0.0001
2
 0.99992 8e-05
2
 0.9999 0.0001
2
 0.9995 0.0005
2
 0.99989 0.00011
2
 0.9996 0.0004
2
 0.9999 0.0001
2
 0.99995 5e-05
2
 0.9995 0.0005
2
 0.999999 1e-06
2
 0.9999 0.0001
2
 0.999999 1e-06
2
 0.9999 0.0001
2
 0.9999 0.0001
2
 0.99999 1e-05
2
 0.9995 0.0005
2
 0.9999 0.0001
2
 0.99995 5e-05
2
 0.99991 9e-05
2
 0.9996 0.0004
2
 0.99998 2e-05
2
 0.9998 0.0002
2
 0.9999 0.0001
2
 0.99999 1e-05
2
 0.99986 0.00014
2
 0.99982 0.00018
2
 0.9999 0.0001
2
 0.9999 0.0001
2
 0.99999 1e-05
2
 0.99996 4e-05
2
 0.99995 5e-05
2
 0.99993 7e-05
2
 0.9991 0.0009
2
 0.9998 0.0002
2
 0.9998 0.0002
2
 0.99998 2e-05
2
 0.9999 0.0001
2
 0.9999 0.0001
2
 0.9999 0.0001
2
 0.9995 0.0005
2
 0.99996 4e-05
2
 0.9997 0.0003
2
 0.9999 0.0001
2
 0.99993 7e-05
2
 0.9999 0.0001
2
 0.99997 3e-05
2
 0.9999 0.0001
2
 1 1e-07
2
 0.99991 9e-05
2
 0.9999 0.0001
2
 0.999 0.001
2
 1 1e-08
2
 1 4e-08
2
 0.9999 0.0001
2
 0.99996 4e-05
2
 0.9999 0.0001
2
 0.9999 0.0001
2
 0.99999 1e-05
2
 0.9999 0.0001
2
 0.999977 2.291e-05
2
 0.9996 0.0004
2
 0.99989 0.00011
2
 0.99998 2e-05
2
 0.9995 0.0005
2
 0.998 0.002
2
 0.995 0.005
2
 0.9999 0.0001
2
 0.99998 2.003e-05
2
 0.994 0.006
2
 0.9999 0.0001
2
 0.99987 0.00013
2
 0.9997 0.0003
2
 0.9995 0.0005
2
 0.99995 5e-05
2
 0.99999 1e-05
2
 0.99995 5e-05
2
 0.997 0.003
2
 0.9999 0.0001
2
 1 2.8e-07
2
 0.99995 5e-05
2
 0.999991 8.59e-06
2
 0.99988 0.00012
2
 0.997 0.003
2
 0.999999 1e-06
2
 0.99995 5e-05
2
 0.9999 0.0001
2
 0.9999 0.0001
2
 0.9999 0.0001
2
 0.9999 0.0001
2
 0.9999 0.0001
2
 0.999996 4e-06
2
 0.9995 0.0005
2
 0.9999 0.0001
2
 0.99999 1e-05
2
 1 1.6e-07
2
 0.9999 0.0001
2
 0.9999 0.0001
2
 0.99999 1e-05
2
 0.9999 0.0001
2
 0.99989 0.00011
2
 0.9999 0.0001
2
 0.999969 3.12e-05
2
 0.999999 1e-06
2
 0.9992 0.0008
2
 0.9999 0.0001
2
 0.9999 0.0001
2
 1 1e-08
2
 0.9995 0.0005
2
 0.99999 1e-05
2
 1 1.4e-07
2
 0.999953 4.733e-05
2
 0.9998 0.0002
2
 0.9999 0.0001
2
 0.99998 2e-05
2
 0.9999 0.0001
2
 0.9999 0.0001
2
 0.99991 9e-05
2
 0.99995 5e-05
2
 0.9995 0.0005
2
 0.99994 6e-05
2
 0.99991 9e-05
2
 0.99991 9e-05
2
 0.9999 0.0001
2
 0.9999 0.0001
2
 0.99995 5e-05
2
 0.99996 4e-05
2
 0.9999 0.0001
2
 1 2.9e-07
2
 1 6e-08
2
 0.9999 0.0001
2
 0.99994 6e-05
2
 0.9998 0.0002
2
 0.999994 6e-06
2
 0.9998 0.0002
2
 0.9999 0.0001
2
 0.99999 1e-05
2
 0.99997 3e-05
2
 0.99997 3e-05
2
 1 1e-07
2
 0.99997 3e-05
2
 0.99995 5e-05
2
 0.999999 1e-06
2
 1 1e-08
2
 0.99998 2e-05
2
 0.9997 0.0003
2
 0.9999 0.0001
2
 0.999999 1e-06
2
 0.9999 0.0001
2
 0.9999 0.0001
2
 1 1e-08
2
 0.9999 0.0001
2
 0.99996 4e-05
2
 0.9999 0.0001
2
 0.99998 2e-05
2
 0.9999 0.0001
2
 0.99997 3e-05
2
 0.99998 2e-05
2
 1 1e-07
2
 1 1e-07
2
 0.99998 2e-05
2
 0.9999 0.0001
2
 0.99997 3e-05
2
 0.99999 1e-05
2
 0.99996 4e-05
2
 0.9999 0.0001
2
 0.999585 0.000415
2
 0.9998 0.0002
2
 0.999999 1e-06
2
 0.9999 0.0001
2
 0.9999 0.0001
2
 0.99993 7e-05
2
 0.9995 0.0005
2
 0.9999 0.0001
2
 0.99995 5e-05
2
 0.99997 3e-05
2
 0.9999 0.0001
2
 0.999999 8.1e-07
2
 0.9986 0.0014
2
 0.999 0.001
2
 0.99999 1e-05
2
 0.9997 0.0003
2
 0.9981 0.0019
2
 0.9999 0.0001
2
 0.99989 0.00011
2
 0.9999 0.0001
2
 0.99991 9e-05
2
 0.9999 0.0001
2
 0.9999 0.0001
2
 0.99989 0.00011
2
 0.99975 0.00025
2
 0.9999 0.0001
2
 0.9995 0.0005
2
 0.9999 0.0001
2
 0.9999 0.0001
2
 0.999999 1e-06
2
 0.99994 6e-05
2
 0.9999 0.0001
2
 0.9996 0.0004
2
 0.9999 0.0001
2
 0.99995 5e-05
2
 0.9985 0.0015
2
 0.99999 1e-05
2
 0.9999 0.0001
2
 0.998 0.002
2
 0.999998 2e-06
2
 0.9999 0.0001
2
 0.999999 1e-06
2
 0.99989 0.00011
2
 0.9999 0.0001
2
 0.99995 5e-05
2
 0.99996 4e-05
2
 1 1e-07
2
 0.99982 0.00018
2
 0.9999 0.0001
2
 0.9999 0.0001
2
 0.99981 0.00019
2
 0.9999 0.0001
2
 1 1e-08
2
 1 1.7e-07
2
 0.9999 0.0001
2
 0.99995 5e-05
2
 1 1.1e-07
2
 0.99997 3e-05
2
 0.99999 1e-05
2
 0.99998 2e-05
2
 0.9999 0.0001
2
 1 1e-07
2
 1 6e-08
2
 0.99996 4e-05
2
 0.9999 0.0001
2
 0.99995 5e-05
2
 0.999973 2.7e-05
2
 0.99991 9e-05
2
 0.99999 1e-05
2
 0.9999 0.0001
2
 0.9999 0.0001
2
 0.9991 0.0009
2
 0.99985 0.00015
2
 0.9999 0.0001
2
 0.9999 0.0001
2
 1 1e-08
2
 0.9999 0.0001
2
 0.99998 2e-05
2
 0.9999 0.0001
2
 0.9995 0.0005
2
 0.99999 1e-05
2
 0.999997 2.88e-06
2
 0.9995 0.0005
2
 0.99922 0.00078
2
 0.9994 0.0006
2
 0.9995 0.0005
2
 0.9998 0.0002
2
 0.99995 5e-05
2
 0.9998 0.0002
2
 0.9999 0.0001
2
 1 5e-07
2
 0.9994 0.0006
2
 0.99999 1e-05
2
 0.99975 0.00025
2
 0.9999 0.0001
2
 0.9995 0.0005
2
 0.99999 1e-05
2
 0.9999 0.0001
2
 0.9999 0.0001
2
 0.9998 0.0002
2
 0.9995 0.0005
2
 0.99984 0.00016
2
 0.999 0.001
2
 0.9996 0.0004
2
 0.9999 0.0001
2
 0.9999 0.0001
2
 0.99997 3e-05
2
 0.999 0.001
2
 0.99991 9e-05
2
 0.9996 0.0004
2
 0.99996 4e-05
2
 1 4e-08
2
 0.9999 0.0001
2
 0.99995 5e-05
2
 0.99998 2e-05
2
 0.9965 0.0035
2
 0.9999 0.0001
2
 0.9928 0.0072
2
 0.9999 0.0001
2
 0.99975 0.00025
2
 0.99985 0.00015
2
 0.99996 4e-05
2
 0.9999 0.0001
2
 0.9985 0.0015
2
 0.99995 5e-05
2
 1 1e-08
2
 0.999784 0.000216
2
 0.9988 0.0012
2
 0.99997 3e-05
2
 0.99995 5e-05
2
 0.999 0.001
2
 0.9995 0.0005
2
 0.999999 6.2e-07
2
 0.99995 5e-05
2
 0.9999 0.0001
2
 0.99998 2e-05
2
 0.99974 0.00026
2
 1 1.2e-07
2
 0.99998 2e-05
2
 0.99996 4e-05
2
 0.9995 0.0005
2
 0.9996 0.0004
2
 0.99999 1e-05
2
 0.9997 0.0003
2
 0.99998 2e-05
2
 0.999997 2.82e-06
2
 0.99999 1e-05
2
 0.9999 0.0001
2
 0.9995 0.0005
2
 0.9999 0.0001
2
 1 2e-08
2
 0.9994 0.0006
2
 0.9999 0.0001
2
 0.999907 9.332e-05
2
 0.9994 0.0006
2
 0.99985 0.00015
2
 0.9999 0.0001
2
 0.9999 0.0001
2
 0.999999 5.4e-07
2
 0.9999 0.0001
2
 0.9995 0.0005
2
 0.999999 1e-06
2
 0.99997 3e-05
2
 0.99995 5e-05
2
 0.999992 8e-06
2
 0.99975 0.00025
2
 0.9999 0.0001
2
 0.9999 0.0001
2
 0.99999 1e-05
2
 0.9999 0.0001
2
 0.99998 2e-05
2
 0.9999 0.0001
2
 0.9999 0.0001
2
 0.99999 1e-05
2
 0.9995 0.0005
2
 0.9995 0.0005
2
 0.999 0.001
2
 0.99999 1e-05
2
 0.99997 3e-05
2
 0.99991 9e-05
2
 0.9985 0.0015
2
 0.9999 0.0001
2
 0.99995 5e-05
2
 1 1e-07
2
 0.9999 0.0001
2
 0.9995 0.0005
2
 0.9999 0.0001
2
 0.99992 8e-05
2
 0.9999 0.0001
2
 0.99997 3e-05
2
 0.9996 0.0004
2
 0.9999 0.0001
2
 0.99994 6e-05
2
 0.99999 1e-05
2
 0.99984 0.00016
2
 0.9999 0.0001
2
 0.9999 0.0001
2
 0.9991 0.0009
2
 0.9995 0.0005
2
 0.9999 0.0001
2
 0.9975 0.0025
2
 0.9999 0.0001
2
 0.9995 0.0005
2
 0.9999 0.0001
2
 0.999 0.001
2
 0.99989 0.00011
2
 0.9999 0.0001
2
 0.99997 3e-05
2
 0.9995 0.0005
2
 0.9999 0.0001
2
 1 1e-07
2
 0.9999 0.0001
2
 0.9999 0.0001
2
 0.9994 0.0006
2
 0.9999 0.0001
2
 0.99997 3e-05
2
 0.9999 0.0001
2
 0.99998 2e-05
2
 0.9999 0.0001
2
 0.99996 4e-05
2
 1 5e-07
1
 1

